(declare-fun a () String)
(declare-fun b () String)

(assert (not ( >= ( + ( str.len b  ) ( - ( - ( - ( - ( - ( - ( - ( - ( - ( - ( - ( - ( - ( - ( - ( - 0 1  ) 1  ) 1  ) 1  ) 1  ) 1  ) 1  ) 1  ) 1  ) 1  ) 1  ) 1  ) 1  ) 1  ) 1  ) 1  )  ) 0  )))

(assert (not ( >= ( + ( str.len a  ) ( - ( - ( - ( - ( - ( - ( - ( - ( - ( - ( - ( - ( - ( - ( - ( - 0 1  ) 1  ) 1  ) 1  ) 1  ) 1  ) 1  ) 1  ) 1  ) 1  ) 1  ) 1  ) 1  ) 1  ) 1  ) 1  )  ) 0  )))

(assert (not ( >= ( + ( str.len b  ) ( - ( - ( - ( - ( - ( - ( - ( - ( - ( - ( - ( - ( - ( - ( - 0 1  ) 1  ) 1  ) 1  ) 1  ) 1  ) 1  ) 1  ) 1  ) 1  ) 1  ) 1  ) 1  ) 1  ) 1  )  ) 0  )))

(assert ( >= ( + ( str.len a  ) ( - ( - ( - ( - ( - ( - ( - ( - ( - ( - ( - ( - ( - ( - ( - 0 1  ) 1  ) 1  ) 1  ) 1  ) 1  ) 1  ) 1  ) 1  ) 1  ) 1  ) 1  ) 1  ) 1  ) 1  )  ) 0  ))
(assert ( >= ( + ( str.len a  ) ( - ( - ( - ( - ( - ( - ( - ( - ( - ( - ( - ( - ( - ( - ( - 0 1  ) 1  ) 1  ) 1  ) 1  ) 1  ) 1  ) 1  ) 1  ) 1  ) 1  ) 1  ) 1  ) 1  ) 1  )  ) 0  ))
(assert (not ( >= ( + ( str.len b  ) ( - ( - ( - ( - ( - ( - ( - ( - ( - ( - ( - ( - ( - ( - 0 1  ) 1  ) 1  ) 1  ) 1  ) 1  ) 1  ) 1  ) 1  ) 1  ) 1  ) 1  ) 1  ) 1  )  ) 0  )))

(assert ( >= ( + ( str.len a  ) ( - ( - ( - ( - ( - ( - ( - ( - ( - ( - ( - ( - ( - ( - 0 1  ) 1  ) 1  ) 1  ) 1  ) 1  ) 1  ) 1  ) 1  ) 1  ) 1  ) 1  ) 1  ) 1  )  ) 0  ))
(assert ( >= ( + ( str.len a  ) ( - ( - ( - ( - ( - ( - ( - ( - ( - ( - ( - ( - ( - ( - 0 1  ) 1  ) 1  ) 1  ) 1  ) 1  ) 1  ) 1  ) 1  ) 1  ) 1  ) 1  ) 1  ) 1  )  ) 0  ))
(assert (not ( >= ( + ( str.len b  ) ( - ( - ( - ( - ( - ( - ( - ( - ( - ( - ( - ( - ( - 0 1  ) 1  ) 1  ) 1  ) 1  ) 1  ) 1  ) 1  ) 1  ) 1  ) 1  ) 1  ) 1  )  ) 0  )))

(assert ( >= ( + ( str.len a  ) ( - ( - ( - ( - ( - ( - ( - ( - ( - ( - ( - ( - ( - 0 1  ) 1  ) 1  ) 1  ) 1  ) 1  ) 1  ) 1  ) 1  ) 1  ) 1  ) 1  ) 1  )  ) 0  ))
(assert ( >= ( + ( str.len a  ) ( - ( - ( - ( - ( - ( - ( - ( - ( - ( - ( - ( - ( - 0 1  ) 1  ) 1  ) 1  ) 1  ) 1  ) 1  ) 1  ) 1  ) 1  ) 1  ) 1  ) 1  )  ) 0  ))
(assert (not ( >= ( + ( str.len b  ) ( - ( - ( - ( - ( - ( - ( - ( - ( - ( - ( - ( - 0 1  ) 1  ) 1  ) 1  ) 1  ) 1  ) 1  ) 1  ) 1  ) 1  ) 1  ) 1  )  ) 0  )))

(assert ( >= ( + ( str.len a  ) ( - ( - ( - ( - ( - ( - ( - ( - ( - ( - ( - ( - 0 1  ) 1  ) 1  ) 1  ) 1  ) 1  ) 1  ) 1  ) 1  ) 1  ) 1  ) 1  )  ) 0  ))
(assert ( >= ( + ( str.len a  ) ( - ( - ( - ( - ( - ( - ( - ( - ( - ( - ( - ( - 0 1  ) 1  ) 1  ) 1  ) 1  ) 1  ) 1  ) 1  ) 1  ) 1  ) 1  ) 1  )  ) 0  ))
(assert (not ( >= ( + ( str.len b  ) ( - ( - ( - ( - ( - ( - ( - ( - ( - ( - ( - 0 1  ) 1  ) 1  ) 1  ) 1  ) 1  ) 1  ) 1  ) 1  ) 1  ) 1  )  ) 0  )))

(assert ( >= ( + ( str.len a  ) ( - ( - ( - ( - ( - ( - ( - ( - ( - ( - ( - 0 1  ) 1  ) 1  ) 1  ) 1  ) 1  ) 1  ) 1  ) 1  ) 1  ) 1  )  ) 0  ))
(assert ( >= ( + ( str.len a  ) ( - ( - ( - ( - ( - ( - ( - ( - ( - ( - ( - 0 1  ) 1  ) 1  ) 1  ) 1  ) 1  ) 1  ) 1  ) 1  ) 1  ) 1  )  ) 0  ))
(assert (not ( >= ( + ( str.len b  ) ( - ( - ( - ( - ( - ( - ( - ( - ( - ( - 0 1  ) 1  ) 1  ) 1  ) 1  ) 1  ) 1  ) 1  ) 1  ) 1  )  ) 0  )))

(assert ( >= ( + ( str.len a  ) ( - ( - ( - ( - ( - ( - ( - ( - ( - ( - 0 1  ) 1  ) 1  ) 1  ) 1  ) 1  ) 1  ) 1  ) 1  ) 1  )  ) 0  ))
(assert ( >= ( + ( str.len a  ) ( - ( - ( - ( - ( - ( - ( - ( - ( - ( - 0 1  ) 1  ) 1  ) 1  ) 1  ) 1  ) 1  ) 1  ) 1  ) 1  )  ) 0  ))
(assert (not ( >= ( + ( str.len b  ) ( - ( - ( - ( - ( - ( - ( - ( - ( - 0 1  ) 1  ) 1  ) 1  ) 1  ) 1  ) 1  ) 1  ) 1  )  ) 0  )))

(assert ( >= ( + ( str.len a  ) ( - ( - ( - ( - ( - ( - ( - ( - ( - 0 1  ) 1  ) 1  ) 1  ) 1  ) 1  ) 1  ) 1  ) 1  )  ) 0  ))
(assert ( >= ( + ( str.len a  ) ( - ( - ( - ( - ( - ( - ( - ( - ( - 0 1  ) 1  ) 1  ) 1  ) 1  ) 1  ) 1  ) 1  ) 1  )  ) 0  ))
(assert (not ( >= ( + ( str.len b  ) ( - ( - ( - ( - ( - ( - ( - ( - 0 1  ) 1  ) 1  ) 1  ) 1  ) 1  ) 1  ) 1  )  ) 0  )))

(assert ( >= ( + ( str.len a  ) ( - ( - ( - ( - ( - ( - ( - ( - 0 1  ) 1  ) 1  ) 1  ) 1  ) 1  ) 1  ) 1  )  ) 0  ))
(assert ( >= ( + ( str.len a  ) ( - ( - ( - ( - ( - ( - ( - ( - 0 1  ) 1  ) 1  ) 1  ) 1  ) 1  ) 1  ) 1  )  ) 0  ))
(assert (not ( >= ( + ( str.len b  ) ( - ( - ( - ( - ( - ( - ( - 0 1  ) 1  ) 1  ) 1  ) 1  ) 1  ) 1  )  ) 0  )))

(assert ( >= ( + ( str.len a  ) ( - ( - ( - ( - ( - ( - ( - 0 1  ) 1  ) 1  ) 1  ) 1  ) 1  ) 1  )  ) 0  ))
(assert ( >= ( + ( str.len a  ) ( - ( - ( - ( - ( - ( - ( - 0 1  ) 1  ) 1  ) 1  ) 1  ) 1  ) 1  )  ) 0  ))
(assert (not ( >= ( + ( str.len b  ) ( - ( - ( - ( - ( - ( - 0 1  ) 1  ) 1  ) 1  ) 1  ) 1  )  ) 0  )))

(assert ( >= ( + ( str.len a  ) ( - ( - ( - ( - ( - ( - 0 1  ) 1  ) 1  ) 1  ) 1  ) 1  )  ) 0  ))
(assert ( >= ( + ( str.len a  ) ( - ( - ( - ( - ( - ( - 0 1  ) 1  ) 1  ) 1  ) 1  ) 1  )  ) 0  ))
(assert (not ( >= ( + ( str.len b  ) ( - ( - ( - ( - ( - 0 1  ) 1  ) 1  ) 1  ) 1  )  ) 0  )))

(assert ( >= ( + ( str.len a  ) ( - ( - ( - ( - ( - 0 1  ) 1  ) 1  ) 1  ) 1  )  ) 0  ))
(assert ( >= ( + ( str.len a  ) ( - ( - ( - ( - ( - 0 1  ) 1  ) 1  ) 1  ) 1  )  ) 0  ))
(assert ( >= ( + ( str.len b  ) ( - ( - ( - ( - 0 1  ) 1  ) 1  ) 1  )  ) 0  ))
(assert ( >= ( + ( str.len a  ) ( - ( - ( - ( - 0 1  ) 1  ) 1  ) 1  )  ) 0  ))
(assert ( >= ( + ( str.len a  ) ( - ( - ( - ( - 0 1  ) 1  ) 1  ) 1  )  ) 0  ))
(assert ( >= ( + ( str.len b  ) ( - ( - ( - 0 1  ) 1  ) 1  )  ) 0  ))
(assert ( >= ( + ( str.len a  ) ( - ( - ( - 0 1  ) 1  ) 1  )  ) 0  ))
(assert ( >= ( + ( str.len a  ) ( - ( - ( - 0 1  ) 1  ) 1  )  ) 0  ))
(assert ( >= ( + ( str.len b  ) ( - ( - 0 1  ) 1  )  ) 0  ))
(assert ( >= ( + ( str.len a  ) ( - ( - 0 1  ) 1  )  ) 0  ))
(assert ( >= ( + ( str.len a  ) ( - ( - 0 1  ) 1  )  ) 0  ))
(assert ( >= ( + ( str.len b  ) ( - 0 1  )  ) 0  ))
(assert ( >= ( + ( str.len a  ) ( - 0 1  )  ) 0  ))
(assert ( >= ( + ( str.len a  ) ( - 0 1  )  ) 0  ))
(assert ( >= ( + ( str.len b  ) 0  ) 0  ))
(assert ( >= ( + ( str.len a  ) 0  ) 0  ))
(assert ( >= ( + ( str.len a  ) 0  ) 0  ))(assert ( = ( div ( + ( div ( + ( div ( + ( div ( + ( div ( + ( div ( + ( div ( + ( div ( + ( div ( + ( div ( + ( div ( + ( div ( + ( div ( + ( + ( div ( + ( + ( div ( + ( + ( div ( + ( + (- 1) ( str.to.int ( str.at a 0  )  )  ) ( str.to.int ( str.at b 0  )  )  ) 2  ) ( str.to.int ( str.at a ( + ( str.len a  ) (- 1)  )  )  )  ) ( str.to.int ( str.at b ( + ( str.len b  ) (- 1)  )  )  )  ) 2  ) ( str.to.int ( str.at a ( + ( str.len a  ) (- 2)  )  )  )  ) ( str.to.int ( str.at b ( + ( str.len b  ) (- 2)  )  )  )  ) 2  ) ( str.to.int ( str.at a ( + ( str.len a  ) (- 3)  )  )  )  ) ( str.to.int ( str.at b ( + ( str.len b  ) (- 3)  )  )  )  ) 2  ) ( str.to.int ( str.at a ( + ( str.len a  ) (- 4)  )  )  )  ) 2  ) ( str.to.int ( str.at a ( + ( str.len a  ) (- 5)  )  )  )  ) 2  ) ( str.to.int ( str.at a ( + ( str.len a  ) (- 6)  )  )  )  ) 2  ) ( str.to.int ( str.at a ( + ( str.len a  ) (- 7)  )  )  )  ) 2  ) ( str.to.int ( str.at a ( + ( str.len a  ) (- 8)  )  )  )  ) 2  ) ( str.to.int ( str.at a ( + ( str.len a  ) (- 9)  )  )  )  ) 2  ) ( str.to.int ( str.at a ( + ( str.len a  ) (- 10)  )  )  )  ) 2  ) ( str.to.int ( str.at a ( + ( str.len a  ) (- 11)  )  )  )  ) 2  ) ( str.to.int ( str.at a ( + ( str.len a  ) (- 12)  )  )  )  ) 2  ) ( str.to.int ( str.at a ( + ( str.len a  ) (- 13)  )  )  )  ) 2  ) ( str.to.int ( str.at a ( + ( str.len a  ) (- 14)  )  )  )  ) 2  ) ( str.to.int ( str.at a ( + ( str.len a  ) (- 15)  )  )  )  ) 2  ) 1  ))(assert (str.in.re a (re.+ (re.range "0" "1"))))(assert (str.in.re b (re.+ (re.range "0" "1"))))

(check-sat)

(get-value (a))
(get-value (b))